125 20
1
28 91 62 39 30 51 80 62 58 15 43 83 6 52 57 58 89 29 0 15 46 9 35 21 2 48 68 65 73 22 49 48 12 83 75 95 85 46 39 43 78 76 70 6 76 42 91 87 46 94 14 12 42 49 26 96 93 55 89 28 51 62 0 50 87 97 93 10 79 73 47 45 44 50 89 26 30 20 26 38 14 49 18 44 5 94 80 18 27 43 25 34 5 35 23 96 72 43 51 76 55 26 90 89 30 49 10 50 88 65 39 94 17 4 36 54 61 50 21 85 68 66 0 81 54
484 469 544 559 798 570 797 343 843 671 414 404 781 470 630 569 765 526 614 647
0 0 0 0 0 0 0 0 0 0 21 0 0 59 54 0 0 0 0 0 0 0 0 0 13 0 0 0 0 55 0 0 0 0 0 0 0 0 0 0 0 0 0 59 0 33 0 0 0 0 0 0 0 0 0 0 0 0 0 49 0 0 0 0 0 0 0 74 0 0 0 0 0 0 0 0 12 0 3 0 0 0 0 0 0 0 53 0 0 0 0 0 0 0 56 23 0 0 77 93 0 0 0 0 0 0 0 0 0 0 0 38 0 12 0 0 0 0 0 0 0 62 0 0 0
0 0 0 0 0 0 0 24 31 0 0 0 28 0 0 0 0 0 0 0 0 0 0 0 0 74 0 55 0 0 75 21 35 0 0 0 0 0 0 0 0 0 0 0 0 0 0 0 0 0 0 0 0 0 0 0 0 0 0 0 0 0 0 0 0 0 0 0 0 0 0 0 0 0 0 0 0 78 0 0 0 0 0 0 0 0 0 0 3 0 0 0 0 0 0 0 0 0 0 55 0 0 81 45 46 0 0 0 77 0 0 0 0 0 0 7 15 0 9 0 0 0 0 33 20
0 0 0 0 0 0 0 0 0 16 0 0 39 0 49 0 0 0 0 0 0 0 0 0 0 0 0 0 0 44 0 35 0 34 0 0 60 0 0 0 0 0 0 0 0 0 0 0 0 0 0 0 0 35 0 0 0 0 0 0 92 0 0 0 0 44 0 31 0 0 0 0 0 0 0 0 0 0 0 0 0 0 32 0 0 0 0 97 39 30 0 38 0 48 0 0 0 0 0 0 0 0 0 0 0 0 0 14 0 0 0 0 0 0 90 0 85 0 0 0 0 0 13 0 0
0 0 0 0 0 0 0 0 0 0 0 70 0 0 0 0 0 0 92 7 0 0 0 0 17 56 0 0 0 0 0 0 0 0 93 0 0 0 0 0 0 0 0 0 0 0 0 0 0 92 39 44 0 0 0 42 0 35 0 0 0 0 0 0 0 0 0 0 0 0 0 0 0 0 0 0 0 0 0 0 80 0 0 0 0 0 0 0 0 0 33 58 0 0 0 0 0 0 47 6 0 0 0 17 52 0 0 0 0 0 0 0 0 0 0 0 77 0 4 0 0 0 0 0 0
0 0 47 0 80 80 0 0 0 0 0 0 0 0 0 0 0 64 14 10 0 0 0 0 59 0 0 0 0 0 0 0 0 0 14 90 0 0 0 0 0 0 0 62 0 0 0 0 21 0 0 38 0 66 23 0 0 0 56 40 0 0 0 0 0 0 9 0 0 0 0 0 0 0 9 0 0 0 73 0 0 0 0 0 26 0 0 91 0 0 0 0 0 87 0 0 0 0 56 0 0 86 0 0 0 0 45 0 0 0 3 95 0 0 0 43 0 0 0 0 0 0 0 0 46
0 0 0 0 0 0 18 0 0 0 0 0 0 0 0 24 0 71 7 0 0 0 0 0 0 0 0 14 0 0 0 33 70 0 0 32 0 0 0 0 0 0 0 4 0 0 0 0 0 0 0 0 64 0 0 0 0 0 0 42 0 0 40 0 0 0 0 0 0 81 0 0 75 0 0 86 0 0 50 0 0 0 0 0 0 53 0 0 0 0 0 50 0 0 0 0 50 0 0 73 0 0 0 0 0 0 0 0 0 0 0 0 0 0 0 0 0 0 0 0 0 0 0 56 0
0 0 0 27 0 0 0 0 0 0 0 0 0 0 0 63 48 0 43 0 0 9 0 0 0 0 0 0 0 0 0 0 0 0 0 0 0 0 0 0 0 86 0 0 0 0 38 0 0 0 0 0 0 0 28 0 0 57 6 19 0 0 21 0 59 0 0 0 57 0 0 5 0 92 44 0 67 0 0 0 0 53 0 46 0 0 0 0 0 74 0 0 1 0 0 5 58 0 0 0 0 2 0 96 0 0 0 53 0 0 0 0 0 6 0 96 0 90 0 0 0 0 47 0 0
0 0 79 0 0 0 0 0 34 0 0 0 0 24 0 17 0 0 81 0 0 0 0 0 0 0 0 0 0 0 82 0 87 0 0 0 0 0 61 0 0 0 0 0 38 0 0 0 0 0 0 0 0 0 0 0 0 0 0 0 0 0 0 0 0 0 0 0 0 0 0 0 28 0 0 0 0 0 0 0 10 0 0 3 0 0 0 0 0 0 0 0 0 0 0 0 0 0 0 0 0 0 0 0 0 0 0 0 0 0 0 0 0 0 0 0 0 12 0 0 0 30 0 0 0
0 0 0 0 31 0 0 0 0 0 0 0 0 0 0 0 0 0 23 0 0 0 0 0 0 34 0 0 0 0 0 0 0 0 0 0 48 0 0 93 0 0 4 0 0 0 0 0 40 0 0 0 0 0 0 37 0 0 0 0 0 0 0 60 0 34 0 0 0 0 90 0 76 0 0 0 54 0 0 0 0 20 0 0 65 0 0 0 44 0 0 0 17 0 0 0 0 0 0 81 0 88 0 39 0 8 0 23 80 0 0 0 33 99 50 37 0 0 89 96 0 0 0 0 0
25 99 0 0 0 0 60 0 0 0 0 0 0 0 0 0 57 0 9 0 0 0 0 0 78 0 0 0 32 0 0 0 0 0 0 0 0 0 0 67 0 0 0 0 0 0 0 0 0 0 0 0 0 0 0 0 0 0 0 59 0 28 0 75 0 0 0 0 0 0 0 22 0 0 0 0 0 0 67 0 0 53 8 0 0 1 0 57 0 39 0 10 0 0 0 0 2 80 0 0 0 0 0 0 0 0 0 0 0 0 0 0 0 0 98 0 46 0 0 95 0 0 0 0 24
0 0 0 0 67 65 0 0 0 0 0 0 0 0 0 0 0 0 0 0 0 0 0 13 0 0 0 0 0 0 0 0 0 0 19 0 0 0 0 0 0 80 0 0 0 0 0 0 52 0 27 0 0 0 0 0 0 0 0 91 0 0 0 0 0 0 0 64 0 0 0 0 0 0 0 0 0 0 0 1 0 0 0 0 0 0 0 0 0 0 18 0 0 0 0 0 0 27 0 0 0 0 44 0 0 53 64 0 0 0 0 0 0 0 0 0 0 50 0 0 0 0 0 0 0
0 0 0 43 0 0 0 0 0 69 0 0 0 0 0 0 18 0 0 0 0 0 90 0 0 0 4 0 0 0 0 0 0 0 0 0 0 0 0 0 0 0 0 0 0 0 0 0 0 0 0 0 0 0 0 0 0 0 0 2 0 0 0 0 65 0 0 0 0 0 0 0 0 0 0 0 0 0 0 62 0 0 0 0 0 0 0 0 0 0 0 0 30 0 0 0 0 0 0 0 0 0 0 16 82 35 0 0 0 0 0 92 0 0 0 0 0 0 0 0 0 0 62 0 0
86 83 38 0 0 0 0 0 0 0 0 0 0 0 14 0 0 0 9 0 0 36 0 0 0 67 0 0 92 0 0 0 0 38 0 0 42 0 4 0 86 52 0 0 0 0 0 0 0 79 0 0 0 0 0 0 0 0 63 0 0 10 49 0 0 0 0 0 16 0 0 0 0 0 0 0 0 0 0 61 0 8 0 0 0 33 0 0 0 0 11 0 0 0 0 0 65 0 0 0 0 0 0 0 3 0 0 0 0 0 0 78 0 0 0 0 0 0 0 53 31 0 75 0 95
15 0 0 0 0 69 36 0 0 0 74 0 0 0 0 0 0 0 0 0 0 0 36 15 0 0 0 51 0 0 0 0 0 0 0 0 0 0 33 10 0 0 0 0 0 0 0 0 0 0 0 43 0 0 0 0 0 0 0 0 0 0 0 0 0 43 0 0 0 97 0 0 0 0 0 0 0 0 0 0 0 24 50 0 0 0 0 0 0 0 0 0 0 0 0 0 0 24 49 0 0 0 0 0 0 0 0 0 0 0 59 0 0 11 35 0 29 0 1 0 0 0 0 0 0
0 0 0 0 16 0 0 0 0 0 0 44 0 31 0 0 0 0 0 0 0 6 0 0 42 0 0 0 0 0 0 0 0 0 0 98 0 11 0 0 0 33 0 0 0 0 0 0 60 14 0 0 0 0 0 22 0 0 0 0 0 0 0 94 0 0 94 0 0 0 0 0 0 0 0 94 21 0 0 0 10 0 0 0 72 0 0 0 0 40 0 0 46 0 0 0 0 0 0 81 0 0 0 50 0 0 0 0 0 0 0 0 0 2 0 0 90 0 0 0 0 0 0 0 0
0 21 0 0 0 0 0 0 0 0 0 0 0 21 12 0 0 0 83 97 0 58 35 0 56 0 0 0 0 0 0 0 67 0 0 0 0 0 87 31 0 0 0 0 0 0 0 0 0 0 0 0 0 0 0 0 0 0 0 0 10 0 0 0 32 0 0 0 0 0 0 0 0 0 0 0 0 0 71 69 0 0 0 0 0 62 0 0 0 0 28 0 0 0 0 0 0 0 0 23 0 0 0 0 0 0 0 0 0 0 0 0 89 0 0 0 0 58 0 0 0 0 0 0 0
0 0 0 0 76 0 0 0 90 44 0 0 0 19 0 0 0 0 0 11 0 0 0 87 96 0 0 41 1 0 0 0 0 46 0 0 0 0 87 0 0 13 0 0 0 0 44 0 0 29 0 0 0 49 0 0 0 0 0 0 0 0 0 25 0 26 0 6 0 41 0 0 0 0 0 0 0 0 0 83 0 0 0 23 0 0 0 0 0 0 0 0 91 0 0 0 5 0 65 0 0 0 0 0 0 0 35 0 0 0 0 0 0 0 0 0 0 78 0 55 0 0 73 0 0
90 0 0 4 0 69 0 0 0 0 62 0 0 50 0 0 59 0 0 7 0 0 0 0 63 0 0 0 0 0 0 0 40 0 0 0 0 0 0 66 0 0 0 0 0 0 0 0 0 0 0 0 0 0 0 0 0 0 0 0 0 0 0 0 0 0 0 0 0 15 0 0 0 0 0 17 3 0 0 0 0 0 0 0 0 45 0 0 0 0 0 49 87 0 0 0 0 0 0 0 0 0 0 27 0 0 0 0 0 84 0 0 0 0 0 0 0 58 0 0 0 0 0 0 0
0 0 0 0 0 0 0 0 0 0 0 0 0 32 0 0 0 0 0 0 51 26 0 0 0 0 4 0 0 0 0 0 0 0 0 0 43 0 0 83 0 0 7 66 0 4 0 0 0 10 0 0 64 71 0 0 58 0 37 0 0 0 0 0 45 0 0 0 0 0 0 89 0 0 4 0 0 0 0 0 3 0 0 0 0 51 40 69 0 0 0 0 74 0 74 0 0 0 0 0 0 0 0 0 0 0 0 0 0 0 0 0 0 0 0 0 0 49 0 0 0 0 0 37 0
0 0 0 0 0 0 0 0 0 0 28 0 92 0 68 0 0 0 0 0 71 0 0 0 0 0 0 0 0 73 0 0 70 0 0 0 42 0 0 0 0 0 0 0 0 0 45 0 0 0 41 65 0 0 0 0 0 44 0 0 0 0 0 0 83 0 4 81 0 0 0 0 0 81 0 29 65 0 0 0 2 0 0 0 0 0 0 21 0 0 0 0 0 0 0 0 0 0 0 0 0 0 69 0 0 0 0 0 0 0 39 0 0 0 0 0 0 0 0 0 0 0 0 0 0
0 0 0 0 0 0 0 0 0 0 8 0 0 32 22 0 0 0 0 0 0 0 0 0 1 0 0 0 0 32 0 0 0 0 0 0 0 0 0 0 0 0 0 1 0 9 0 0 0 0 0 0 0 0 0 0 0 0 0 46 0 0 0 0 0 0 0 19 0 0 0 0 0 0 0 0 9 0 0 0 0 0 0 0 0 0 18 0 0 0 0 0 0 0 25 9 0 0 68 60 0 0 0 0 0 0 0 0 0 0 0 16 0 5 0 0 0 0 0 0 0 14 0 0 0
0 0 0 0 0 0 0 5 17 0 0 0 1 0 0 0 0 0 0 0 0 0 0 0 0 54 0 40 0 0 21 3 11 0 0 0 0 0 0 0 0 0 0 0 0 0 0 0 0 0 0 0 0 0 0 0 0 0 0 0 0 0 0 0 0 0 0 0 0 0 0 0 0 0 0 0 0 61 0 0 0 0 0 0 0 0 0 0 1 0 0 0 0 0 0 0 0 0 0 24 0 0 56 18 28 0 0 0 35 0 0 0 0 0 0 0 6 0 6 0 0 0 0 27 3
0 0 0 0 0 0 0 0 0 5 0 0 33 0 25 0 0 0 0 0 0 0 0 0 0 0 0 0 0 8 0 28 0 24 0 0 18 0 0 0 0 0 0 0 0 0 0 0 0 0 0 0 0 5 0 0 0 0 0 0 46 0 0 0 0 16 0 28 0 0 0 0 0 0 0 0 0 0 0 0 0 0 0 0 0 0 0 82 2 2 0 24 0 6 0 0 0 0 0 0 0 0 0 0 0 0 0 8 0 0 0 0 0 0 32 0 20 0 0 0 0 0 4 0 0
0 0 0 0 0 0 0 0 0 0 0 40 0 0 0 0 0 0 23 6 0 0 0 0 4 39 0 0 0 0 0 0 0 0 57 0 0 0 0 0 0 0 0 0 0 0 0 0 0 90 23 8 0 0 0 15 0 19 0 0 0 0 0 0 0 0 0 0 0 0 0 0 0 0 0 0 0 0 0 0 63 0 0 0 0 0 0 0 0 0 12 53 0 0 0 0 0 0 15 1 0 0 0 1 35 0 0 0 0 0 0 0 0 0 0 0 13 0 0 0 0 0 0 0 0
0 0 0 0 34 1 0 0 0 0 0 0 0 0 0 0 0 56 6 1 0 0 0 0 6 0 0 0 0 0 0 0 0 0 9 46 0 0 0 0 0 0 0 4 0 0 0 0 5 0 0 8 0 36 15 0 0 0 22 0 0 0 0 0 0 0 5 0 0 0 0 0 0 0 5 0 0 0 50 0 0 0 0 0 11 0 0 48 0 0 0 0 0 84 0 0 0 0 8 0 0 74 0 0 0 0 6 0 0 0 0 11 0 0 0 2 0 0 0 0 0 0 0 0 22
0 0 0 0 0 0 12 0 0 0 0 0 0 0 0 19 0 47 6 0 0 0 0 0 0 0 0 6 0 0 0 13 65 0 0 28 0 0 0 0 0 0 0 3 0 0 0 0 0 0 0 0 42 0 0 0 0 0 0 38 0 0 6 0 0 0 0 0 0 40 0 0 32 0 0 73 0 0 25 0 0 0 0 0 0 39 0 0 0 0 0 2 0 0 0 0 12 0 0 2 0 0 0 0 0 0 0 0 0 0 0 0 0 0 0 0 0 0 0 0 0 0 0 25 0
0 0 0 5 0 0 0 0 0 0 0 0 0 0 0 32 40 0 25 0 0 8 0 0 0 0 0 0 0 0 0 0 0 0 0 0 0 0 0 0 0 72 0 0 0 0 16 0 0 0 0 0 0 0 13 0 0 15 0 18 0 0 3 0 45 0 0 0 38 0 0 0 0 75 15 0 0 0 0 0 0 3 0 35 0 0 0 0 0 34 0 0 0 0 0 3 54 0 0 0 0 1 0 81 0 0 0 36 0 0 0 0 0 0 0 6 0 83 0 0 0 0 31 0 0
0 0 27 0 0 0 0 0 24 0 0 0 0 17 0 15 0 0 37 0 0 0 0 0 0 0 0 0 0 0 16 0 78 0 0 0 0 0 15 0 0 0 0 0 18 0 0 0 0 0 0 0 0 0 0 0 0 0 0 0 0 0 0 0 0 0 0 0 0 0 0 0 11 0 0 0 0 0 0 0 2 0 0 2 0 0 0 0 0 0 0 0 0 0 0 0 0 0 0 0 0 0 0 0 0 0 0 0 0 0 0 0 0 0 0 0 0 9 0 0 0 4 0 0 0
0 0 0 0 21 0 0 0 0 0 0 0 0 0 0 0 0 0 14 0 0 0 0 0 0 21 0 0 0 0 0 0 0 0 0 0 35 0 0 85 0 0 0 0 0 0 0 0 21 0 0 0 0 0 0 14 0 0 0 0 0 0 0 32 0 3 0 0 0 0 65 0 71 0 0 0 46 0 0 0 0 4 0 0 9 0 0 0 6 0 0 0 9 0 0 0 0 0 0 41 0 16 0 0 0 6 0 17 11 0 0 0 6 91 18 33 0 0 15 51 0 0 0 0 0
8 69 0 0 0 0 9 0 0 0 0 0 0 0 0 0 3 0 5 0 0 0 0 0 20 0 0 0 18 0 0 0 0 0 0 0 0 0 0 27 0 0 0 0 0 0 0 0 0 0 0 0 0 0 0 0 0 0 0 10 0 15 0 43 0 0 0 0 0 0 0 3 0 0 0 0 0 0 3 0 0 23 1 0 0 0 0 50 0 28 0 1 0 0 0 0 1 55 0 0 0 0 0 0 0 0 0 0 0 0 0 0 0 0 79 0 0 0 0 38 0 0 0 0 13
0 0 0 0 7 59 0 0 0 0 0 0 0 0 0 0 0 0 0 0 0 0 0 9 0 0 0 0 0 0 0 0 0 0 7 0 0 0 0 0 0 36 0 0 0 0 0 0 31 0 4 0 0 0 0 0 0 0 0 5 0 0 0 0 0 0 0 9 0 0 0 0 0 0 0 0 0 0 0 0 0 0 0 0 0 0 0 0 0 0 3 0 0 0 0 0 0 8 0 0 0 0 17 0 0 9 34 0 0 0 0 0 0 0 0 0 0 36 0 0 0 0 0 0 0
0 0 0 24 0 0 0 0 0 68 0 0 0 0 0 0 8 0 0 0 0 0 57 0 0 0 2 0 0 0 0 0 0 0 0 0 0 0 0 0 0 0 0 0 0 0 0 0 0 0 0 0 0 0 0 0 0 0 0 0 0 0 0 0 3 0 0 0 0 0 0 0 0 0 0 0 0 0 0 26 0 0 0 0 0 0 0 0 0 0 0 0 16 0 0 0 0 0 0 0 0 0 0 5 41 8 0 0 0 0 0 89 0 0 0 0 0 0 0 0 0 0 2 0 0
51 24 20 0 0 0 0 0 0 0 0 0 0 0 9 0 0 0 0 0 0 33 0 0 0 63 0 0 5 0 0 0 0 18 0 0 41 0 2 0 79 38 0 0 0 0 0 0 0 42 0 0 0 0 0 0 0 0 26 0 0 0 43 0 0 0 0 0 6 0 0 0 0 0 0 0 0 0 0 38 0 0 0 0 0 32 0 0 0 0 1 0 0 0 0 0 57 0 0 0 0 0 0 0 1 0 0 0 0 0 0 43 0 0 0 0 0 0 0 44 22 0 23 0 35
1 0 0 0 0 12 34 0 0 0 42 0 0 0 0 0 0 0 0 0 0 0 15 5 0 0 0 27 0 0 0 0 0 0 0 0 0 0 13 0 0 0 0 0 0 0 0 0 0 0 0 28 0 0 0 0 0 0 0 0 0 0 0 0 0 13 0 0 0 96 0 0 0 0 0 0 0 0 0 0 0 0 45 0 0 0 0 0 0 0 0 0 0 0 0 0 0 6 7 0 0 0 0 0 0 0 0 0 0 0 44 0 0 10 15 0 3 0 0 0 0 0 0 0 0
0 0 0 0 6 0 0 0 0 0 0 22 0 26 0 0 0 0 0 0 0 3 0 0 13 0 0 0 0 0 0 0 0 0 0 40 0 3 0 0 0 11 0 0 0 0 0 0 55 10 0 0 0 0 0 14 0 0 0 0 0 0 0 79 0 0 47 0 0 0 0 0 0 0 0 81 18 0 0 0 8 0 0 0 53 0 0 0 0 24 0 0 3 0 0 0 0 0 0 69 0 0 0 19 0 0 0 0 0 0 0 0 0 1 0 0 75 0 0 0 0 0 0 0 0
0 19 0 0 0 0 0 0 0 0 0 0 0 16 2 0 0 0 59 18 0 43 29 0 7 0 0 0 0 0 0 0 32 0 0 0 0 0 23 12 0 0 0 0 0 0 0 0 0 0 0 0 0 0 0 0 0 0 0 0 6 0 0 0 13 0 0 0 0 0 0 0 0 0 0 0 0 0 31 50 0 0 0 0 0 12 0 0 0 0 4 0 0 0 0 0 0 0 0 10 0 0 0 0 0 0 0 0 0 0 0 0 62 0 0 0 0 9 0 0 0 0 0 0 0
0 0 0 0 54 0 0 0 56 38 0 0 0 7 0 0 0 0 0 4 0 0 0 5 57 0 0 34 0 0 0 0 0 21 0 0 0 0 44 0 0 0 0 0 0 0 3 0 0 10 0 0 0 42 0 0 0 0 0 0 0 0 0 10 0 19 0 1 0 3 0 0 0 0 0 0 0 0 0 2 0 0 0 9 0 0 0 0 0 0 0 0 72 0 0 0 4 0 60 0 0 0 0 0 0 0 13 0 0 0 0 0 0 0 0 0 0 70 0 53 0 0 60 0 0
48 0 0 2 0 65 0 0 0 0 57 0 0 25 0 0 15 0 0 0 0 0 0 0 4 0 0 0 0 0 0 0 13 0 0 0 0 0 0 43 0 0 0 0 0 0 0 0 0 0 0 0 0 0 0 0 0 0 0 0 0 0 0 0 0 0 0 0 0 4 0 0 0 0 0 2 1 0 0 0 0 0 0 0 0 39 0 0 0 0 0 14 49 0 0 0 0 0 0 0 0 0 0 14 0 0 0 0 0 68 0 0 0 0 0 0 0 56 0 0 0 0 0 0 0
0 0 0 0 0 0 0 0 0 0 0 0 0 1 0 0 0 0 0 0 38 18 0 0 0 0 3 0 0 0 0 0 0 0 0 0 21 0 0 61 0 0 4 35 0 3 0 0 0 9 0 0 29 5 0 0 21 0 36 0 0 0 0 0 40 0 0 0 0 0 0 18 0 0 2 0 0 0 0 0 0 0 0 0 0 2 37 7 0 0 0 0 47 0 57 0 0 0 0 0 0 0 0 0 0 0 0 0 0 0 0 0 0 0 0 0 0 13 0 0 0 0 0 16 0
0 0 0 0 0 0 0 0 0 0 25 0 61 0 67 0 0 0 0 0 51 0 0 0 0 0 0 0 0 37 0 0 18 0 0 0 1 0 0 0 0 0 0 0 0 0 0 0 0 0 28 44 0 0 0 0 0 43 0 0 0 0 0 0 2 0 0 74 0 0 0 0 0 60 0 26 37 0 0 0 0 0 0 0 0 0 0 9 0 0 0 0 0 0 0 0 0 0 0 0 0 0 60 0 0 0 0 0 0 0 20 0 0 0 0 0 0 0 0 0 0 0 0 0 0
